slay06h.py
Ipopt 3.12.8: 
==> Warning: Treating 60 binary and 0 integer variables as continous.


******************************************************************************
This program contains Ipopt, a library for large-scale nonlinear optimization.
 Ipopt is released as open source code under the Eclipse Public License (EPL).
         For more information visit http://projects.coin-or.org/Ipopt
******************************************************************************

This is Ipopt version 3.12.8, running with linear solver ma27.

Number of nonzeros in equality constraint Jacobian...:      360
Number of nonzeros in inequality constraint Jacobian.:      840
Number of nonzeros in Lagrangian Hessian.............:       12

Total number of variables............................:      342
                     variables with only lower bounds:      270
                variables with lower and upper bounds:       72
                     variables with only upper bounds:        0
Total number of equality constraints.................:       75
Total number of inequality constraints...............:      360
        inequality constraints with only lower bounds:       60
   inequality constraints with lower and upper bounds:        0
        inequality constraints with only upper bounds:      300

iter    objective    inf_pr   inf_du lg(mu)  ||d||  lg(rg) alpha_du alpha_pr  ls
   0  2.2496259e+05 3.50e+00 1.46e+01  -1.0 0.00e+00    -  0.00e+00 0.00e+00   0
   1  2.2540497e+05 3.42e+00 1.40e+01  -1.0 6.91e+00    -  1.11e-02 2.10e-02f  1
   2  2.2431735e+05 3.25e+00 1.47e+01  -1.0 6.54e+00    -  1.45e-02 4.89e-02f  1
   3  2.2134843e+05 3.07e+00 1.49e+01  -1.0 6.05e+00    -  1.88e-02 5.63e-02f  1
   4  2.1693009e+05 2.97e+00 1.45e+01  -1.0 5.51e+00    -  1.58e-02 3.38e-02f  1
   5  1.6045715e+05 2.12e+00 1.06e+01  -1.0 7.08e+00    -  2.88e-02 2.84e-01f  1
   6  1.2235057e+05 1.71e+00 8.53e+00  -1.0 7.97e+00    -  8.67e-02 1.93e-01f  1
   7  7.6613231e+04 1.08e+00 5.69e+00  -1.0 6.62e+00    -  6.58e-02 3.72e-01f  1
   8  6.6568724e+04 8.93e-01 4.70e+00  -1.0 4.53e+00    -  1.13e-01 1.71e-01f  1
   9  5.2976846e+04 5.92e-01 3.76e+00  -1.0 4.60e+00    -  6.52e-02 3.37e-01f  1
iter    objective    inf_pr   inf_du lg(mu)  ||d||  lg(rg) alpha_du alpha_pr  ls
  10  3.7854498e+04 1.69e-01 4.69e+00  -1.0 9.03e+00    -  1.19e-01 7.15e-01f  1
  11  3.2835471e+04 5.99e-02 1.78e+00  -1.0 8.75e+00    -  2.12e-01 6.45e-01f  1
  12  3.0976977e+04 2.66e-15 6.76e-01  -1.0 5.71e+00    -  6.12e-01 1.00e+00f  1
  13  3.0849249e+04 2.66e-15 1.64e-01  -1.0 2.29e+00    -  7.01e-01 1.00e+00f  1
  14  3.0871801e+04 3.55e-15 1.00e-06  -1.0 2.42e+00    -  1.00e+00 1.00e+00f  1
  15  3.0516708e+04 2.22e-15 3.01e-02  -2.5 4.73e-01    -  1.00e+00 9.08e-01f  1
  16  3.0485541e+04 2.66e-15 2.83e-08  -2.5 7.53e-01    -  1.00e+00 1.00e+00f  1
  17  3.0474866e+04 2.66e-15 1.50e-09  -3.8 8.15e-02    -  1.00e+00 1.00e+00f  1
  18  3.0474700e+04 3.55e-15 1.50e-09  -3.8 1.77e-01    -  1.00e+00 1.00e+00f  1
  19  3.0474085e+04 4.44e-15 1.84e-11  -5.7 2.05e-02    -  1.00e+00 1.00e+00f  1
iter    objective    inf_pr   inf_du lg(mu)  ||d||  lg(rg) alpha_du alpha_pr  ls
  20  3.0474066e+04 2.44e-15 1.84e-11  -5.7 7.72e-03    -  1.00e+00 1.00e+00f  1
  21  3.0474063e+04 2.22e-15 1.84e-11  -5.7 1.55e-03    -  1.00e+00 1.00e+00f  1
  22  3.0474056e+04 2.66e-15 2.53e-14  -8.6 2.42e-04    -  1.00e+00 1.00e+00f  1
  23  3.0474056e+04 2.66e-15 9.54e-15  -9.0 1.82e-06    -  1.00e+00 1.00e+00h  1

Number of Iterations....: 23

                                   (scaled)                 (unscaled)
Objective...............:   3.1255441940267201e+02    3.0474055891760519e+04
Dual infeasibility......:   9.5358301787851473e-15    9.2974344243155186e-13
Constraint violation....:   2.6645352591003757e-15    2.6645352591003757e-15
Complementarity.........:   9.4947877454905063e-10    9.2574180518532431e-08
Overall NLP error.......:   9.4947877454905063e-10    9.2574180518532431e-08


Number of objective function evaluations             = 24
Number of objective gradient evaluations             = 24
Number of equality constraint evaluations            = 24
Number of inequality constraint evaluations          = 24
Number of equality constraint Jacobian evaluations   = 24
Number of inequality constraint Jacobian evaluations = 24
Number of Lagrangian Hessian evaluations             = 23
Total CPU secs in IPOPT (w/o function evaluations)   =      0.028
Total CPU secs in NLP function evaluations           =      0.000

EXIT: Optimal Solution Found.

Time elapsed: 0.172081947327